words_train/words_156_SAT.qaiger
aag 115 24 0 1 91
2
38
24
32
8
26
30
4
28
14
34
20
6
42
46
36
10
44
22
48
12
18
40
16
231
50 45 20
52 44 21
54 53 51
56 43 18
58 42 19
60 59 57
62 60 54
64 47 22
66 46 23
68 67 65
70 68 62
72 49 24
74 48 25
76 75 73
78 76 70
80 49 26
82 48 27
84 83 81
86 84 78
88 49 28
90 48 29
92 91 89
94 92 86
96 49 30
98 48 31
100 99 97
102 100 94
104 101 95
106 105 103
108 9 6
110 109 9
112 110 11
114 112 13
116 114 15
118 115 14
120 119 117
122 121 106
124 93 87
126 125 95
128 113 12
130 129 115
132 131 126
134 85 79
136 135 87
138 111 10
140 139 113
142 141 136
144 140 137
146 8 7
148 147 109
150 77 71
152 151 79
154 153 149
156 152 148
158 55 5
160 69 6
162 161 63
164 54 4
166 165 3
168 166 61
170 169 162
172 170 159
174 69 63
176 175 71
178 176 7
180 179 173
182 180 157
184 183 155
186 184 145
188 187 143
190 188 133
192 130 127
194 120 107
196 195 193
198 196 191
200 199 123
202 48 33
204 49 32
206 205 203
208 207 16
210 206 17
212 211 209
214 212 116
216 213 117
218 217 215
220 219 102
222 218 103
224 223 221
226 225 200
228 224 201
230 229 227
i0 2 y[0]
i1 2 z[2]
i2 1 x[3]
i3 1 x[7]
i4 2 y[3]
i5 1 x[4]
i6 1 x[6]
i7 2 y[1]
i8 1 x[5]
i9 2 y[6]
i10 2 z[0]
i11 1 x[1]
i12 2 y[2]
i13 2 z[4]
i14 2 z[6]
i15 2 z[1]
i16 2 y[4]
i17 2 z[5]
i18 1 x[2]
i19 2 z[7]
i20 2 y[5]
i21 1 x[0]
i22 2 z[3]
i23 2 y[7]
o0 bv[0]
c
simplified
  >=
    subtract
      2 y
      << 2
        1
    xor
      1 x
      >> 4
        2 z
