words_train/words_156_SAT.qaiger.qdimacs
p cnf 115 274
a 9 10 11 12 13 14 15 16 0
e 1 2 3 4 5 6 7 8 17 18 19 20 21 22 23 24 25 26 27 28 29 30 31 32 33 34 35 36 37 38 39 40 41 42 43 44 45 46 47 48 49 50 51 52 53 54 55 56 57 58 59 60 61 62 63 64 65 66 67 68 69 70 71 72 73 74 75 76 77 78 79 80 81 82 83 84 85 86 87 88 89 90 91 92 93 94 95 96 97 98 99 100 101 102 103 104 105 106 107 108 109 110 111 112 113 114 115 0
22 -10 25 0
-22 -25 0
10 -25 0
-22 10 26 0
22 -26 0
-10 -26 0
26 25 27 0
-26 -27 0
-25 -27 0
21 -9 28 0
-21 -28 0
9 -28 0
-21 9 29 0
21 -29 0
-9 -29 0
29 28 30 0
-29 -30 0
-28 -30 0
-30 -27 31 0
30 -31 0
27 -31 0
23 -11 32 0
-23 -32 0
11 -32 0
-23 11 33 0
23 -33 0
-11 -33 0
33 32 34 0
-33 -34 0
-32 -34 0
-34 -31 35 0
34 -35 0
31 -35 0
24 -12 36 0
-24 -36 0
12 -36 0
-24 12 37 0
24 -37 0
-12 -37 0
37 36 38 0
-37 -38 0
-36 -38 0
-38 -35 39 0
38 -39 0
35 -39 0
24 -13 40 0
-24 -40 0
13 -40 0
-24 13 41 0
24 -41 0
-13 -41 0
41 40 42 0
-41 -42 0
-40 -42 0
-42 -39 43 0
42 -43 0
39 -43 0
24 -14 44 0
-24 -44 0
14 -44 0
-24 14 45 0
24 -45 0
-14 -45 0
45 44 46 0
-45 -46 0
-44 -46 0
-46 -43 47 0
46 -47 0
43 -47 0
24 -15 48 0
-24 -48 0
15 -48 0
-24 15 49 0
24 -49 0
-15 -49 0
49 48 50 0
-49 -50 0
-48 -50 0
-50 -47 51 0
50 -51 0
47 -51 0
50 47 52 0
-50 -52 0
-47 -52 0
52 51 53 0
-52 -53 0
-51 -53 0
4 -3 54 0
-4 -54 0
3 -54 0
54 4 55 0
-54 -55 0
-4 -55 0
-55 5 56 0
55 -56 0
-5 -56 0
-56 6 57 0
56 -57 0
-6 -57 0
-57 7 58 0
57 -58 0
-7 -58 0
57 -7 59 0
-57 -59 0
7 -59 0
59 58 60 0
-59 -60 0
-58 -60 0
60 -53 61 0
-60 -61 0
53 -61 0
46 43 62 0
-46 -62 0
-43 -62 0
62 47 63 0
-62 -63 0
-47 -63 0
56 -6 64 0
-56 -64 0
6 -64 0
64 57 65 0
-64 -65 0
-57 -65 0
65 -63 66 0
-65 -66 0
63 -66 0
42 39 67 0
-42 -67 0
-39 -67 0
67 43 68 0
-67 -68 0
-43 -68 0
55 -5 69 0
-55 -69 0
5 -69 0
69 56 70 0
-69 -70 0
-56 -70 0
70 -68 71 0
-70 -71 0
68 -71 0
-70 68 72 0
70 -72 0
-68 -72 0
-4 3 73 0
4 -73 0
-3 -73 0
73 54 74 0
-73 -74 0
-54 -74 0
38 35 75 0
-38 -75 0
-35 -75 0
75 39 76 0
-75 -76 0
-39 -76 0
76 74 77 0
-76 -77 0
-74 -77 0
-76 -74 78 0
76 -78 0
74 -78 0
27 2 79 0
-27 -79 0
-2 -79 0
34 -3 80 0
-34 -80 0
3 -80 0
80 31 81 0
-80 -81 0
-31 -81 0
-27 -2 82 0
27 -82 0
2 -82 0
82 1 83 0
-82 -83 0
-1 -83 0
-83 30 84 0
83 -84 0
-30 -84 0
84 -81 85 0
-84 -85 0
81 -85 0
-85 79 86 0
85 -86 0
-79 -86 0
34 31 87 0
-34 -87 0
-31 -87 0
87 35 88 0
-87 -88 0
-35 -88 0
-88 3 89 0
88 -89 0
-3 -89 0
89 86 90 0
-89 -90 0
-86 -90 0
-90 78 91 0
90 -91 0
-78 -91 0
91 77 92 0
-91 -92 0
-77 -92 0
-92 72 93 0
92 -93 0
-72 -93 0
93 71 94 0
-93 -94 0
-71 -94 0
-94 66 95 0
94 -95 0
-66 -95 0
-65 63 96 0
65 -96 0
-63 -96 0
-60 53 97 0
60 -97 0
-53 -97 0
97 96 98 0
-97 -98 0
-96 -98 0
-98 95 99 0
98 -99 0
-95 -99 0
99 61 100 0
-99 -100 0
-61 -100 0
-24 16 101 0
24 -101 0
-16 -101 0
24 -16 102 0
-24 -102 0
16 -102 0
102 101 103 0
-102 -103 0
-101 -103 0
103 -8 104 0
-103 -104 0
8 -104 0
-103 8 105 0
103 -105 0
-8 -105 0
105 104 106 0
-105 -106 0
-104 -106 0
-106 -58 107 0
106 -107 0
58 -107 0
106 58 108 0
-106 -108 0
-58 -108 0
108 107 109 0
-108 -109 0
-107 -109 0
109 -51 110 0
-109 -110 0
51 -110 0
-109 51 111 0
109 -111 0
-51 -111 0
111 110 112 0
-111 -112 0
-110 -112 0
112 -100 113 0
-112 -113 0
100 -113 0
-112 100 114 0
112 -114 0
-100 -114 0
114 113 115 0
-114 -115 0
-113 -115 0
-115 0
